(set-info :smt-lib-version 2.6)
(set-info :category "crafted")
(set-logic QF_FF)
(define-sort FF0 () (_ FiniteField 52435875175126190479447740508185965837690552500527637822603658699938581184513))
(declare-fun x16_n3_alt () FF0)
(declare-fun x14_n6_alt () FF0)
(declare-fun x13_n9_alt () FF0)
(declare-fun x11_n12_alt () FF0)
(declare-fun x15_n15_alt () FF0)
(declare-fun x8_n1_alt () FF0)
(declare-fun x10_n4_alt () FF0)
(declare-fun x3_n7_alt () FF0)
(declare-fun x5_n10_alt () FF0)
(declare-fun x1_n13_alt () FF0)
(declare-fun x19_n16_alt () FF0)
(declare-fun x18_n19_alt () FF0)
(declare-fun x4_n2_alt () FF0)
(declare-fun x0_n5_alt () FF0)
(declare-fun x9_n8_alt () FF0)
(declare-fun x17_n11_alt () FF0)
(declare-fun x7_n14_alt () FF0)
(declare-fun x6_n17_alt () FF0)
(declare-fun x2_n20_alt () FF0)
(declare-fun x12_n0_alt () FF0)
(declare-fun return_n18_alt () FF0)
(declare-fun is_zero_inv_n21_alt () FF0)
(declare-fun x16_n3 () FF0)
(declare-fun x14_n6 () FF0)
(declare-fun x13_n9 () FF0)
(declare-fun x11_n12 () FF0)
(declare-fun x15_n15 () FF0)
(declare-fun x8_n1 () FF0)
(declare-fun x10_n4 () FF0)
(declare-fun x3_n7 () FF0)
(declare-fun x5_n10 () FF0)
(declare-fun x1_n13 () FF0)
(declare-fun x19_n16 () FF0)
(declare-fun x18_n19 () FF0)
(declare-fun x4_n2 () FF0)
(declare-fun x0_n5 () FF0)
(declare-fun x9_n8 () FF0)
(declare-fun x17_n11 () FF0)
(declare-fun x7_n14 () FF0)
(declare-fun x6_n17 () FF0)
(declare-fun x2_n20 () FF0)
(declare-fun x12_n0 () FF0)
(declare-fun return_n18 () FF0)
(declare-fun is_zero_inv_n21 () FF0)
(assert 
  (let ((let0 (as ff0 FF0)))
  (let ((let1 x16_n3_alt))
  (let ((let2 x14_n6_alt))
  (let ((let3 x13_n9_alt))
  (let ((let4 x11_n12_alt))
  (let ((let5 x15_n15_alt))
  (let ((let6 x8_n1_alt))
  (let ((let7 x10_n4_alt))
  (let ((let8 x3_n7_alt))
  (let ((let9 x5_n10_alt))
  (let ((let10 x1_n13_alt))
  (let ((let11 x19_n16_alt))
  (let ((let12 x18_n19_alt))
  (let ((let13 x4_n2_alt))
  (let ((let14 x0_n5_alt))
  (let ((let15 x9_n8_alt))
  (let ((let16 x17_n11_alt))
  (let ((let17 x7_n14_alt))
  (let ((let18 x6_n17_alt))
  (let ((let19 x2_n20_alt))
  (let ((let20 x12_n0_alt))
  (let ((let21 (ff.add let20 let19 let18 let17 let16 let15 let14 let13 let12 let11 let10 let9 let8 let7 let6 let5 let4 let3 let2 let1)))
  (let ((let22 (as ff1 FF0)))
  (let ((let23 (as ff52435875175126190479447740508185965837690552500527637822603658699938581184512 FF0)))
  (let ((let24 return_n18_alt))
  (let ((let25 (ff.mul let24 let23)))
  (let ((let26 (ff.add let25 let22)))
  (let ((let27 (ff.mul let26 let21)))
  (let ((let28 (= let27 let0)))
  (let ((let29 is_zero_inv_n21_alt))
  (let ((let30 (ff.mul let29 let21)))
  (let ((let31 (= let30 let24)))
  (let ((let32 (and let31 let28)))
  (let ((let33 x16_n3))
  (let ((let34 x14_n6))
  (let ((let35 x13_n9))
  (let ((let36 x11_n12))
  (let ((let37 x15_n15))
  (let ((let38 x8_n1))
  (let ((let39 x10_n4))
  (let ((let40 x3_n7))
  (let ((let41 x5_n10))
  (let ((let42 x1_n13))
  (let ((let43 x19_n16))
  (let ((let44 x18_n19))
  (let ((let45 x4_n2))
  (let ((let46 x0_n5))
  (let ((let47 x9_n8))
  (let ((let48 x17_n11))
  (let ((let49 x7_n14))
  (let ((let50 x6_n17))
  (let ((let51 x2_n20))
  (let ((let52 x12_n0))
  (let ((let53 (ff.add let52 let51 let50 let49 let48 let47 let46 let45 let44 let43 let42 let41 let40 let39 let38 let37 let36 let35 let34 let33)))
  (let ((let54 return_n18))
  (let ((let55 (ff.mul let54 let23)))
  (let ((let56 (ff.add let55 let22)))
  (let ((let57 (ff.mul let56 let53)))
  (let ((let58 (= let57 let0)))
  (let ((let59 is_zero_inv_n21))
  (let ((let60 (ff.mul let59 let53)))
  (let ((let61 (= let60 let54)))
  (let ((let62 (and let61 let58)))
  (let ((let63 (= let54 let24)))
  (let ((let64 (not let63)))
  (let ((let65 (= let52 let20)))
  (let ((let66 (= let41 let9)))
  (let ((let67 (= let47 let15)))
  (let ((let68 (= let49 let17)))
  (let ((let69 (= let43 let11)))
  (let ((let70 (= let45 let13)))
  (let ((let71 (= let35 let3)))
  (let ((let72 (= let50 let18)))
  (let ((let73 (= let37 let5)))
  (let ((let74 (= let42 let10)))
  (let ((let75 (= let38 let6)))
  (let ((let76 (= let36 let4)))
  (let ((let77 (= let39 let7)))
  (let ((let78 (= let40 let8)))
  (let ((let79 (= let51 let19)))
  (let ((let80 (= let48 let16)))
  (let ((let81 (= let46 let14)))
  (let ((let82 (= let34 let2)))
  (let ((let83 (= let44 let12)))
  (let ((let84 (= let33 let1)))
  (let ((let85 (and let84 let83 let82 let81 let80 let79 let78 let77 let76 let75 let74 let73 let72 let71 let70 let69 let68 let67 let66 let65)))
  (let ((let86 (and let85 let64 let62 let32)))
  let86
)))))))))))))))))))))))))))))))))))))))))))))))))))))))))))))))))))))))))))))))))))))))
)
(check-sat)
